QBPP_HJ*_25_025_10_3
25 111 27
50 37 38 21 21 10 44 15 5 1 18 9 22 31 20 23 2 35 6 30 7 38 36 15 18
    0    0    0    0    3    0    1    0    0   17    0    0    0    0    0    0    0    0   19    0    0    0  -42    0  -40
    0    0   31    0  -21    0  -13  -34    0    0    0    0    0    0    0    0   33    0  -24    0    0  -34    0   30    0
    0   31    0   44   26    0    0   38    0    0    0    0    0    0    0    0    0    0  -36    0    0  -49   41  -41    0
    0    0   44    0   -3    0    0  -22    0    0    0  -20    0    0  -17    0    0    0    0    0    0    0    0    4    0
    3  -21   26   -3    0    0    0    0    0    0    0    0    0    0    0    0    0    0    0    0    0    0  -23    0   24
    0    0    0    0    0    0    0    0    0    0    0    0    0    0  -42    0    0    0    0    0   -3    0    0    0    0
    1  -13    0    0    0    0    0    0    0    0    0    0    0    0   20  -19    0    0    0    0    0    0  -22    0    0
    0  -34   38  -22    0    0    0    0   36    0    0    0    0    0    0   12    0    0    0    0    0    0    0    0  -17
    0    0    0    0    0    0    0   36    0   31    0    0  -13    0    0    0   -1  -45    0    0    0    0    0    0    0
   17    0    0    0    0    0    0    0   31    0    0    0    0  -41    0    0   -4    0    0    0    0    0    0    0    0
    0    0    0    0    0    0    0    0    0    0    0    0    2    0    0    0    0    0    0    0  -20    0    0    0  -44
    0    0    0  -20    0    0    0    0    0    0    0    0    0    0    0    0    0    0    0    0  -19    0    0    0  -43
    0    0    0    0    0    0    0    0  -13    0    2    0    0    0   22    0  -37    0   42    0    0    0    0    0    0
    0    0    0    0    0    0    0    0    0  -41    0    0    0    0    0    0    0   17    0    0  -43    0    0   11    0
    0    0    0  -17    0  -42   20    0    0    0    0    0   22    0    0    0   26    0    0  -10    0    0  -21   12    0
    0    0    0    0    0    0  -19   12    0    0    0    0    0    0    0    0    0    0    0    0    0    0    0    0   36
    0   33    0    0    0    0    0    0   -1   -4    0    0  -37    0   26    0    0    0    0    0  -33    0   45    0    0
    0    0    0    0    0    0    0    0  -45    0    0    0    0   17    0    0    0    0   13    0    0    0    0   -4    0
   19  -24  -36    0    0    0    0    0    0    0    0    0   42    0    0    0    0   13    0    0    0    0    0    0  -39
    0    0    0    0    0    0    0    0    0    0    0    0    0    0  -10    0    0    0    0    0    0  -39    0    0  -47
    0    0    0    0    0   -3    0    0    0    0  -20  -19    0  -43    0    0  -33    0    0    0    0    0  -10    0    0
    0  -34  -49    0    0    0    0    0    0    0    0    0    0    0    0    0    0    0    0  -39    0    0    0    0    0
  -42    0   41    0  -23    0  -22    0    0    0    0    0    0    0  -21    0   45    0    0    0  -10    0    0    0    0
    0   30  -41    4    0    0    0    0    0    0    0    0    0   11   12    0    0   -4    0    0    0    0    0    0    0
  -40    0    0    0   24    0    0  -17    0    0  -44  -43    0    0    0   36    0    0  -39  -47    0    0    0    0    0
